num_offers = 35;
num_halls = 10;
start=[4,73,25,17,6,32,36,40,26,72,2,40,65,27,66,40,54,3,80,39,8,5,7,17,42,19,74,12,13,25,18,24,14,31,71];
end=[90,100,50,26,18,61,99,99,53,80,85,98,77,64,87,97,95,24,88,93,22,20,73,85,97,41,99,58,78,64,74,88,19,52,84];
price=[2533,364,1283,643,1168,1959,4008,4355,874,355,3745,5520,1118,2388,2164,4448,2412,2063,797,2955,1081,245,1333,4056,3374,2084,1024,2415,1825,1954,3973,2896,114,659,658];
requirement=[433,292,735,871,747,476,439,368,812,400,811,385,310,917,572,462,898,750,977,639,735,424,201,390,406,749,258,321,716,795,241,616,430,958,948];
capacity=[381,638,662,712,998,769,885,596,484,794];
